//OMAC CPLEX Data file

S = 4 ;
N = 8 ;
F = 3 ;
L = 18 ;


servers_Names = ['PopSaclay', 'PopEvry', 'PopParis', 'PopOrly'];
clients_Names = ['Clients12', 'Clients11', 'Clients10', 'Clients8', 'Clients7', 'Clients9', 'Clients6', 'Clients5'];
vcdns_Names = ['NetFlix', 'TF1', 'HBO'];
locations_Names = ['Evry', 'Paris', 'Saclay', 'Issy', 'Chatillon', 'Boulogne', 'Versailles', 'Antony', 'Palaiseau', 'Orly', 'Melun', 'Corbeille', 'Argenteuil', 'Creteil', 'Ivry-sur-Seine', 'Poissy', 'Limours', 'Sarcelles'];


D = [10000, 10000, 10000, 10000];


volume = [235, 860, 235, 127];


size_of = [60, 20, 20];


serverLocation = [2, 0, 1, 9];


clientLocation = [16, 11, 12, 17, 16, 11, 7, 13];


serverOf = [0, 0, 1];


d = [
[15.4025, 21.309, 0] ,
[53.3358, 15.4255, 77.2734] ,
[88.8943, 0, 68.3428] ,
[0, 0, 4.73361] ,
[69.6866, 2.76844, 0] ,
[0, 90.8853, 0] ,
[71.4924, 0, 0] ,
[0, 64.1301, 0] ,
];


C = [
[0, 44, 48, 26, 0, 0, 0, 0, 0, 0, 0, 0, 0, 0, 0, 0, 0, 0] ,
[44, 0, 0, 0, 38, 51, 61, 0, 0, 0, 0, 0, 0, 0, 0, 0, 0, 0] ,
[48, 0, 0, 0, 0, 0, 0, 29, 38, 83, 0, 0, 0, 0, 0, 0, 0, 0] ,
[26, 0, 0, 0, 0, 0, 0, 0, 0, 0, 90, 84, 45, 0, 0, 0, 0, 0] ,
[0, 38, 0, 0, 0, 0, 0, 0, 0, 0, 0, 0, 0, 19, 92, 46, 0, 0] ,
[0, 51, 0, 0, 0, 0, 0, 0, 0, 0, 0, 0, 0, 0, 0, 0, 39, 72] ,
[0, 61, 0, 0, 0, 0, 0, 0, 0, 0, 0, 0, 0, 0, 0, 0, 0, 0] ,
[0, 0, 29, 0, 0, 0, 0, 0, 0, 0, 0, 0, 0, 0, 0, 0, 0, 0] ,
[0, 0, 38, 0, 0, 0, 0, 0, 0, 0, 0, 0, 0, 0, 0, 0, 0, 0] ,
[0, 0, 83, 0, 0, 0, 0, 0, 0, 0, 0, 0, 0, 0, 0, 0, 0, 0] ,
[0, 0, 0, 90, 0, 0, 0, 0, 0, 0, 0, 0, 0, 0, 0, 0, 0, 0] ,
[0, 0, 0, 84, 0, 0, 0, 0, 0, 0, 0, 0, 0, 0, 0, 0, 0, 0] ,
[0, 0, 0, 45, 0, 0, 0, 0, 0, 0, 0, 0, 0, 0, 0, 0, 0, 0] ,
[0, 0, 0, 0, 19, 0, 0, 0, 0, 0, 0, 0, 0, 0, 0, 0, 0, 0] ,
[0, 0, 0, 0, 92, 0, 0, 0, 0, 0, 0, 0, 0, 0, 0, 0, 0, 0] ,
[0, 0, 0, 0, 46, 0, 0, 0, 0, 0, 0, 0, 0, 0, 0, 0, 0, 0] ,
[0, 0, 0, 0, 0, 39, 0, 0, 0, 0, 0, 0, 0, 0, 0, 0, 0, 0] ,
[0, 0, 0, 0, 0, 72, 0, 0, 0, 0, 0, 0, 0, 0, 0, 0, 0, 0] ,
];


hopcount = [
[0, 1, 2, 1] ,
[1, 0, 1, 2] ,
[2, 1, 0, 3] ,
[1, 2, 3, 0] ,
];


migrationCostK = [
[1.0, 1.0, 1.0, 1.0] ,
[1.0, 1.0, 1.0, 1.0] ,
[1.0, 1.0, 1.0, 1.0] ,
[1.0, 1.0, 1.0, 1.0] ,
];
